\ Model Calcul_Borne_Inf_L
\ LP format - for model browsing. Use MPS format to capture full model detail.
Minimize
  2.596652269363403 C2 - 2.946147918701172 C3 - 1.722342729568481 Constant
Subject To
 R0: C0 <= 6.986673355102539
 R1: C0 >= -3.01332688331604
 R2: C1 <= 6.971576690673828
 R3: C1 >= -3.028423070907593
 R4: - 2.879850149154663 C0 + 0.8426412343978882 C1 + C2
   >= 0.5241518020629883
 R5: - 1.754020156977606 C0 + 0.5132245199175501 C1 + C2
   <= 9.182663164913352
 R6: 1.255256772041321 C0 - 2.670398712158203 C1 + C3 >= 2.376555442810059
 R7: 0.7162366811817131 C0 - 1.523702204703303 C1 + C3 <= 10.9745649875927
Bounds
 C0 >= -3.02332688331604
 C1 >= -3.038423070907593
 C2 >= -14.56246734619141
 C3 >= -16.8671662902832
 Constant = 1
End
